p cnf 212 1260
1 -126 -96 0
-1 126 -96 0
1 126 -97 0
-1 -126 -97 0
20 -126 -102 0
-20 126 -102 0
20 126 -103 0
-20 -126 -103 0
39 -126 -108 0
-39 126 -108 0
39 126 -109 0
-39 -126 -109 0
58 -126 -114 0
-58 126 -114 0
58 126 -115 0
-58 -126 -115 0
77 -126 -120 0
-77 126 -120 0
77 126 -121 0
-77 -126 -121 0
2 -96 0
2 -97 0
96 -96 0
97 -97 0
21 -102 0
21 -103 0
102 -102 0
103 -103 0
40 -108 0
40 -109 0
108 -108 0
109 -109 0
59 -114 0
59 -115 0
114 -114 0
115 -115 0
78 -120 0
78 -121 0
120 -120 0
121 -121 0
3 -96 0
3 -97 0
96 -96 0
97 -97 0
22 -102 0
22 -103 0
102 -102 0
103 -103 0
41 -108 0
41 -109 0
108 -108 0
109 -109 0
60 -114 0
60 -115 0
114 -114 0
115 -115 0
79 -120 0
79 -121 0
120 -120 0
121 -121 0
4 -96 0
4 -97 0
96 -96 0
97 -97 0
23 -102 0
23 -103 0
102 -102 0
103 -103 0
42 -108 0
42 -109 0
108 -108 0
109 -109 0
61 -114 0
61 -115 0
114 -114 0
115 -115 0
80 -120 0
80 -121 0
120 -120 0
121 -121 0
5 -96 0
5 -97 0
96 -96 0
97 -97 0
24 -102 0
24 -103 0
102 -102 0
103 -103 0
43 -108 0
43 -109 0
108 -108 0
109 -109 0
62 -114 0
62 -115 0
114 -114 0
115 -115 0
81 -120 0
81 -121 0
120 -120 0
121 -121 0
6 -127 -96 0
-6 127 -96 0
6 127 -97 0
-6 -127 -97 0
25 -127 -102 0
-25 127 -102 0
25 127 -103 0
-25 -127 -103 0
44 -127 -108 0
-44 127 -108 0
44 127 -109 0
-44 -127 -109 0
63 -127 -114 0
-63 127 -114 0
63 127 -115 0
-63 -127 -115 0
82 -127 -120 0
-82 127 -120 0
82 127 -121 0
-82 -127 -121 0
7 -128 -96 0
-7 128 -96 0
7 128 -97 0
-7 -128 -97 0
26 -128 -102 0
-26 128 -102 0
26 128 -103 0
-26 -128 -103 0
45 -128 -108 0
-45 128 -108 0
45 128 -109 0
-45 -128 -109 0
64 -128 -114 0
-64 128 -114 0
64 128 -115 0
-64 -128 -115 0
83 -128 -120 0
-83 128 -120 0
83 128 -121 0
-83 -128 -121 0
8 -129 -96 0
-8 129 -96 0
8 129 -97 0
-8 -129 -97 0
27 -129 -102 0
-27 129 -102 0
27 129 -103 0
-27 -129 -103 0
46 -129 -108 0
-46 129 -108 0
46 129 -109 0
-46 -129 -109 0
65 -129 -114 0
-65 129 -114 0
65 129 -115 0
-65 -129 -115 0
84 -129 -120 0
-84 129 -120 0
84 129 -121 0
-84 -129 -121 0
9 -130 -96 0
-9 130 -96 0
9 130 -97 0
-9 -130 -97 0
28 -130 -102 0
-28 130 -102 0
28 130 -103 0
-28 -130 -103 0
47 -130 -108 0
-47 130 -108 0
47 130 -109 0
-47 -130 -109 0
66 -130 -114 0
-66 130 -114 0
66 130 -115 0
-66 -130 -115 0
85 -130 -120 0
-85 130 -120 0
85 130 -121 0
-85 -130 -121 0
10 -131 -96 0
-10 131 -96 0
10 131 -97 0
-10 -131 -97 0
29 -131 -102 0
-29 131 -102 0
29 131 -103 0
-29 -131 -103 0
48 -131 -108 0
-48 131 -108 0
48 131 -109 0
-48 -131 -109 0
67 -131 -114 0
-67 131 -114 0
67 131 -115 0
-67 -131 -115 0
86 -131 -120 0
-86 131 -120 0
86 131 -121 0
-86 -131 -121 0
11 -132 -96 0
-11 132 -96 0
11 132 -97 0
-11 -132 -97 0
30 -132 -102 0
-30 132 -102 0
30 132 -103 0
-30 -132 -103 0
49 -132 -108 0
-49 132 -108 0
49 132 -109 0
-49 -132 -109 0
68 -132 -114 0
-68 132 -114 0
68 132 -115 0
-68 -132 -115 0
87 -132 -120 0
-87 132 -120 0
87 132 -121 0
-87 -132 -121 0
12 -133 -96 0
-12 133 -96 0
12 133 -97 0
-12 -133 -97 0
31 -133 -102 0
-31 133 -102 0
31 133 -103 0
-31 -133 -103 0
50 -133 -108 0
-50 133 -108 0
50 133 -109 0
-50 -133 -109 0
69 -133 -114 0
-69 133 -114 0
69 133 -115 0
-69 -133 -115 0
88 -133 -120 0
-88 133 -120 0
88 133 -121 0
-88 -133 -121 0
13 -96 0
13 -97 0
96 -96 0
97 -97 0
32 -102 0
32 -103 0
102 -102 0
103 -103 0
51 -108 0
51 -109 0
108 -108 0
109 -109 0
70 -114 0
70 -115 0
114 -114 0
115 -115 0
89 -120 0
89 -121 0
120 -120 0
121 -121 0
14 -96 0
14 -97 0
96 -96 0
97 -97 0
33 -102 0
33 -103 0
102 -102 0
103 -103 0
52 -108 0
52 -109 0
108 -108 0
109 -109 0
71 -114 0
71 -115 0
114 -114 0
115 -115 0
90 -120 0
90 -121 0
120 -120 0
121 -121 0
15 -96 0
15 -97 0
96 -96 0
97 -97 0
34 -102 0
34 -103 0
102 -102 0
103 -103 0
53 -108 0
53 -109 0
108 -108 0
109 -109 0
72 -114 0
72 -115 0
114 -114 0
115 -115 0
91 -120 0
91 -121 0
120 -120 0
121 -121 0
16 -96 0
16 -97 0
96 -96 0
97 -97 0
35 -102 0
35 -103 0
102 -102 0
103 -103 0
54 -108 0
54 -109 0
108 -108 0
109 -109 0
73 -114 0
73 -115 0
114 -114 0
115 -115 0
92 -120 0
92 -121 0
120 -120 0
121 -121 0
17 -96 0
17 -97 0
96 -96 0
97 -97 0
36 -102 0
36 -103 0
102 -102 0
103 -103 0
55 -108 0
55 -109 0
108 -108 0
109 -109 0
74 -114 0
74 -115 0
114 -114 0
115 -115 0
93 -120 0
93 -121 0
120 -120 0
121 -121 0
18 -96 0
18 -97 0
96 -96 0
97 -97 0
37 -102 0
37 -103 0
102 -102 0
103 -103 0
56 -108 0
56 -109 0
108 -108 0
109 -109 0
75 -114 0
75 -115 0
114 -114 0
115 -115 0
94 -120 0
94 -121 0
120 -120 0
121 -121 0
19 -96 0
19 -97 0
96 -96 0
97 -97 0
38 -102 0
38 -103 0
102 -102 0
103 -103 0
57 -108 0
57 -109 0
108 -108 0
109 -109 0
76 -114 0
76 -115 0
114 -114 0
115 -115 0
95 -120 0
95 -121 0
120 -120 0
121 -121 0
-183 96 0
183 -96 0
-184 97 0
183 -97 0
-183 -96 0
-184 -97 0
-189 96 183 0
189 -96 0
189 -183 0
-190 97 184 0
190 -97 0
190 -184 0
-189 -102 0
-190 -103 0
-195 102 189 0
195 -102 0
195 -189 0
-196 103 190 0
196 -103 0
196 -190 0
-195 -108 0
-196 -109 0
-201 108 195 0
201 -108 0
201 -195 0
-202 109 196 0
202 -109 0
202 -196 0
-201 -114 0
-202 -115 0
-207 114 201 0
207 -114 0
207 -201 0
-208 115 202 0
208 -115 0
208 -202 0
-207 -120 0
-208 -121 0
207 0
208 0
-1 -98 0
-1 -99 0
98 -98 0
99 -99 0
-20 -104 0
-20 -105 0
104 -104 0
105 -105 0
-39 -110 0
-39 -111 0
110 -110 0
111 -111 0
-58 -116 0
-58 -117 0
116 -116 0
117 -117 0
-77 -122 0
-77 -123 0
122 -122 0
123 -123 0
2 -98 0
2 -99 0
98 -98 0
99 -99 0
21 -104 0
21 -105 0
104 -104 0
105 -105 0
40 -110 0
40 -111 0
110 -110 0
111 -111 0
59 -116 0
59 -117 0
116 -116 0
117 -117 0
78 -122 0
78 -123 0
122 -122 0
123 -123 0
3 -98 0
3 -99 0
98 -98 0
99 -99 0
22 -104 0
22 -105 0
104 -104 0
105 -105 0
41 -110 0
41 -111 0
110 -110 0
111 -111 0
60 -116 0
60 -117 0
116 -116 0
117 -117 0
79 -122 0
79 -123 0
122 -122 0
123 -123 0
-4 -98 0
-4 -99 0
98 -98 0
99 -99 0
-23 -104 0
-23 -105 0
104 -104 0
105 -105 0
-42 -110 0
-42 -111 0
110 -110 0
111 -111 0
-61 -116 0
-61 -117 0
116 -116 0
117 -117 0
-80 -122 0
-80 -123 0
122 -122 0
123 -123 0
5 -98 0
5 -99 0
98 -98 0
99 -99 0
24 -104 0
24 -105 0
104 -104 0
105 -105 0
43 -110 0
43 -111 0
110 -110 0
111 -111 0
62 -116 0
62 -117 0
116 -116 0
117 -117 0
81 -122 0
81 -123 0
122 -122 0
123 -123 0
-6 -98 0
-6 -99 0
98 -98 0
99 -99 0
-25 -104 0
-25 -105 0
104 -104 0
105 -105 0
-44 -110 0
-44 -111 0
110 -110 0
111 -111 0
-63 -116 0
-63 -117 0
116 -116 0
117 -117 0
-82 -122 0
-82 -123 0
122 -122 0
123 -123 0
-7 -98 0
-7 -99 0
98 -98 0
99 -99 0
-26 -104 0
-26 -105 0
104 -104 0
105 -105 0
-45 -110 0
-45 -111 0
110 -110 0
111 -111 0
-64 -116 0
-64 -117 0
116 -116 0
117 -117 0
-83 -122 0
-83 -123 0
122 -122 0
123 -123 0
8 -98 0
8 -99 0
98 -98 0
99 -99 0
27 -104 0
27 -105 0
104 -104 0
105 -105 0
46 -110 0
46 -111 0
110 -110 0
111 -111 0
65 -116 0
65 -117 0
116 -116 0
117 -117 0
84 -122 0
84 -123 0
122 -122 0
123 -123 0
9 -98 0
9 -99 0
98 -98 0
99 -99 0
28 -104 0
28 -105 0
104 -104 0
105 -105 0
47 -110 0
47 -111 0
110 -110 0
111 -111 0
66 -116 0
66 -117 0
116 -116 0
117 -117 0
85 -122 0
85 -123 0
122 -122 0
123 -123 0
-10 -98 0
-10 -99 0
98 -98 0
99 -99 0
-29 -104 0
-29 -105 0
104 -104 0
105 -105 0
-48 -110 0
-48 -111 0
110 -110 0
111 -111 0
-67 -116 0
-67 -117 0
116 -116 0
117 -117 0
-86 -122 0
-86 -123 0
122 -122 0
123 -123 0
-11 -98 0
-11 -99 0
98 -98 0
99 -99 0
-30 -104 0
-30 -105 0
104 -104 0
105 -105 0
-49 -110 0
-49 -111 0
110 -110 0
111 -111 0
-68 -116 0
-68 -117 0
116 -116 0
117 -117 0
-87 -122 0
-87 -123 0
122 -122 0
123 -123 0
12 -98 0
12 -99 0
98 -98 0
99 -99 0
31 -104 0
31 -105 0
104 -104 0
105 -105 0
50 -110 0
50 -111 0
110 -110 0
111 -111 0
69 -116 0
69 -117 0
116 -116 0
117 -117 0
88 -122 0
88 -123 0
122 -122 0
123 -123 0
13 -98 0
13 -99 0
98 -98 0
99 -99 0
32 -104 0
32 -105 0
104 -104 0
105 -105 0
51 -110 0
51 -111 0
110 -110 0
111 -111 0
70 -116 0
70 -117 0
116 -116 0
117 -117 0
89 -122 0
89 -123 0
122 -122 0
123 -123 0
14 -98 0
14 -99 0
98 -98 0
99 -99 0
33 -104 0
33 -105 0
104 -104 0
105 -105 0
52 -110 0
52 -111 0
110 -110 0
111 -111 0
71 -116 0
71 -117 0
116 -116 0
117 -117 0
90 -122 0
90 -123 0
122 -122 0
123 -123 0
15 -98 0
15 -99 0
98 -98 0
99 -99 0
34 -104 0
34 -105 0
104 -104 0
105 -105 0
53 -110 0
53 -111 0
110 -110 0
111 -111 0
72 -116 0
72 -117 0
116 -116 0
117 -117 0
91 -122 0
91 -123 0
122 -122 0
123 -123 0
16 -98 0
16 -99 0
98 -98 0
99 -99 0
35 -104 0
35 -105 0
104 -104 0
105 -105 0
54 -110 0
54 -111 0
110 -110 0
111 -111 0
73 -116 0
73 -117 0
116 -116 0
117 -117 0
92 -122 0
92 -123 0
122 -122 0
123 -123 0
17 -98 0
17 -99 0
98 -98 0
99 -99 0
36 -104 0
36 -105 0
104 -104 0
105 -105 0
55 -110 0
55 -111 0
110 -110 0
111 -111 0
74 -116 0
74 -117 0
116 -116 0
117 -117 0
93 -122 0
93 -123 0
122 -122 0
123 -123 0
18 -134 -98 0
-18 134 -98 0
18 134 -99 0
-18 -134 -99 0
37 -134 -104 0
-37 134 -104 0
37 134 -105 0
-37 -134 -105 0
56 -134 -110 0
-56 134 -110 0
56 134 -111 0
-56 -134 -111 0
75 -134 -116 0
-75 134 -116 0
75 134 -117 0
-75 -134 -117 0
94 -134 -122 0
-94 134 -122 0
94 134 -123 0
-94 -134 -123 0
19 -135 -98 0
-19 135 -98 0
19 135 -99 0
-19 -135 -99 0
38 -135 -104 0
-38 135 -104 0
38 135 -105 0
-38 -135 -105 0
57 -135 -110 0
-57 135 -110 0
57 135 -111 0
-57 -135 -111 0
76 -135 -116 0
-76 135 -116 0
76 135 -117 0
-76 -135 -117 0
95 -135 -122 0
-95 135 -122 0
95 135 -123 0
-95 -135 -123 0
-185 98 0
185 -98 0
-186 99 0
185 -99 0
-185 -98 0
-186 -99 0
-191 98 185 0
191 -98 0
191 -185 0
-192 99 186 0
192 -99 0
192 -186 0
-191 -104 0
-192 -105 0
-197 104 191 0
197 -104 0
197 -191 0
-198 105 192 0
198 -105 0
198 -192 0
-197 -110 0
-198 -111 0
-203 110 197 0
203 -110 0
203 -197 0
-204 111 198 0
204 -111 0
204 -198 0
-203 -116 0
-204 -117 0
-209 116 203 0
209 -116 0
209 -203 0
-210 117 204 0
210 -117 0
210 -204 0
-209 -122 0
-210 -123 0
209 0
210 0
-1 -100 0
-1 -101 0
100 -100 0
101 -101 0
-20 -106 0
-20 -107 0
106 -106 0
107 -107 0
-39 -112 0
-39 -113 0
112 -112 0
113 -113 0
-58 -118 0
-58 -119 0
118 -118 0
119 -119 0
-77 -124 0
-77 -125 0
124 -124 0
125 -125 0
2 -100 0
2 -101 0
100 -100 0
101 -101 0
21 -106 0
21 -107 0
106 -106 0
107 -107 0
40 -112 0
40 -113 0
112 -112 0
113 -113 0
59 -118 0
59 -119 0
118 -118 0
119 -119 0
78 -124 0
78 -125 0
124 -124 0
125 -125 0
3 -100 0
3 -101 0
100 -100 0
101 -101 0
22 -106 0
22 -107 0
106 -106 0
107 -107 0
41 -112 0
41 -113 0
112 -112 0
113 -113 0
60 -118 0
60 -119 0
118 -118 0
119 -119 0
79 -124 0
79 -125 0
124 -124 0
125 -125 0
4 -100 0
4 -101 0
100 -100 0
101 -101 0
23 -106 0
23 -107 0
106 -106 0
107 -107 0
42 -112 0
42 -113 0
112 -112 0
113 -113 0
61 -118 0
61 -119 0
118 -118 0
119 -119 0
80 -124 0
80 -125 0
124 -124 0
125 -125 0
5 -100 0
5 -101 0
100 -100 0
101 -101 0
24 -106 0
24 -107 0
106 -106 0
107 -107 0
43 -112 0
43 -113 0
112 -112 0
113 -113 0
62 -118 0
62 -119 0
118 -118 0
119 -119 0
81 -124 0
81 -125 0
124 -124 0
125 -125 0
6 -100 0
6 -101 0
100 -100 0
101 -101 0
25 -106 0
25 -107 0
106 -106 0
107 -107 0
44 -112 0
44 -113 0
112 -112 0
113 -113 0
63 -118 0
63 -119 0
118 -118 0
119 -119 0
82 -124 0
82 -125 0
124 -124 0
125 -125 0
7 -100 0
7 -101 0
100 -100 0
101 -101 0
26 -106 0
26 -107 0
106 -106 0
107 -107 0
45 -112 0
45 -113 0
112 -112 0
113 -113 0
64 -118 0
64 -119 0
118 -118 0
119 -119 0
83 -124 0
83 -125 0
124 -124 0
125 -125 0
8 -100 0
8 -101 0
100 -100 0
101 -101 0
27 -106 0
27 -107 0
106 -106 0
107 -107 0
46 -112 0
46 -113 0
112 -112 0
113 -113 0
65 -118 0
65 -119 0
118 -118 0
119 -119 0
84 -124 0
84 -125 0
124 -124 0
125 -125 0
-9 -100 0
-9 -101 0
100 -100 0
101 -101 0
-28 -106 0
-28 -107 0
106 -106 0
107 -107 0
-47 -112 0
-47 -113 0
112 -112 0
113 -113 0
-66 -118 0
-66 -119 0
118 -118 0
119 -119 0
-85 -124 0
-85 -125 0
124 -124 0
125 -125 0
-10 -100 0
-10 -101 0
100 -100 0
101 -101 0
-29 -106 0
-29 -107 0
106 -106 0
107 -107 0
-48 -112 0
-48 -113 0
112 -112 0
113 -113 0
-67 -118 0
-67 -119 0
118 -118 0
119 -119 0
-86 -124 0
-86 -125 0
124 -124 0
125 -125 0
11 -136 -100 0
-11 136 -100 0
11 136 -101 0
-11 -136 -101 0
30 -136 -106 0
-30 136 -106 0
30 136 -107 0
-30 -136 -107 0
49 -136 -112 0
-49 136 -112 0
49 136 -113 0
-49 -136 -113 0
68 -136 -118 0
-68 136 -118 0
68 136 -119 0
-68 -136 -119 0
87 -136 -124 0
-87 136 -124 0
87 136 -125 0
-87 -136 -125 0
12 -100 0
12 -101 0
100 -100 0
101 -101 0
31 -106 0
31 -107 0
106 -106 0
107 -107 0
50 -112 0
50 -113 0
112 -112 0
113 -113 0
69 -118 0
69 -119 0
118 -118 0
119 -119 0
88 -124 0
88 -125 0
124 -124 0
125 -125 0
13 -100 0
13 -101 0
100 -100 0
101 -101 0
32 -106 0
32 -107 0
106 -106 0
107 -107 0
51 -112 0
51 -113 0
112 -112 0
113 -113 0
70 -118 0
70 -119 0
118 -118 0
119 -119 0
89 -124 0
89 -125 0
124 -124 0
125 -125 0
14 -100 0
14 -101 0
100 -100 0
101 -101 0
33 -106 0
33 -107 0
106 -106 0
107 -107 0
52 -112 0
52 -113 0
112 -112 0
113 -113 0
71 -118 0
71 -119 0
118 -118 0
119 -119 0
90 -124 0
90 -125 0
124 -124 0
125 -125 0
15 -137 -100 0
-15 137 -100 0
15 137 -101 0
-15 -137 -101 0
34 -137 -106 0
-34 137 -106 0
34 137 -107 0
-34 -137 -107 0
53 -137 -112 0
-53 137 -112 0
53 137 -113 0
-53 -137 -113 0
72 -137 -118 0
-72 137 -118 0
72 137 -119 0
-72 -137 -119 0
91 -137 -124 0
-91 137 -124 0
91 137 -125 0
-91 -137 -125 0
16 -100 0
16 -101 0
100 -100 0
101 -101 0
35 -106 0
35 -107 0
106 -106 0
107 -107 0
54 -112 0
54 -113 0
112 -112 0
113 -113 0
73 -118 0
73 -119 0
118 -118 0
119 -119 0
92 -124 0
92 -125 0
124 -124 0
125 -125 0
17 -100 0
17 -101 0
100 -100 0
101 -101 0
36 -106 0
36 -107 0
106 -106 0
107 -107 0
55 -112 0
55 -113 0
112 -112 0
113 -113 0
74 -118 0
74 -119 0
118 -118 0
119 -119 0
93 -124 0
93 -125 0
124 -124 0
125 -125 0
18 -100 0
18 -101 0
100 -100 0
101 -101 0
37 -106 0
37 -107 0
106 -106 0
107 -107 0
56 -112 0
56 -113 0
112 -112 0
113 -113 0
75 -118 0
75 -119 0
118 -118 0
119 -119 0
94 -124 0
94 -125 0
124 -124 0
125 -125 0
19 -138 -100 0
-19 138 -100 0
19 138 -101 0
-19 -138 -101 0
38 -138 -106 0
-38 138 -106 0
38 138 -107 0
-38 -138 -107 0
57 -138 -112 0
-57 138 -112 0
57 138 -113 0
-57 -138 -113 0
76 -138 -118 0
-76 138 -118 0
76 138 -119 0
-76 -138 -119 0
95 -138 -124 0
-95 138 -124 0
95 138 -125 0
-95 -138 -125 0
-187 100 0
187 -100 0
-188 101 0
187 -101 0
-187 -100 0
-188 -101 0
-193 100 187 0
193 -100 0
193 -187 0
-194 101 188 0
194 -101 0
194 -188 0
-193 -106 0
-194 -107 0
-199 106 193 0
199 -106 0
199 -193 0
-200 107 194 0
200 -107 0
200 -194 0
-199 -112 0
-200 -113 0
-205 112 199 0
205 -112 0
205 -199 0
-206 113 200 0
206 -113 0
206 -200 0
-205 -118 0
-206 -119 0
-211 118 205 0
211 -118 0
211 -205 0
-212 119 206 0
212 -119 0
212 -206 0
-211 -124 0
-212 -125 0
211 0
212 0
